244 5
10 10 10 10 10 

0 0 0 0 0 0 3 2 14 26 
0 0 0 0 0 0 2 3 4 
5 0 0 0 0 1 2 7 5 
5 0 0 0 0 8 1 5 
9 0 0 0 0 7 2 8 6 
4 0 0 0 0 7 2 10 9 
3 0 0 0 0 1 2 10 9 
9 0 0 0 0 4 1 9 
6 0 0 0 0 4 2 12 11 
3 0 0 0 0 5 2 12 11 
4 0 0 0 0 7 1 13 
10 0 0 0 0 6 1 13 
0 0 0 0 0 0 1 38 
0 0 0 0 0 0 4 15 19 22 24 
9 0 1 0 0 0 3 21 17 16 
9 0 5 0 0 0 1 18 
4 0 5 0 0 0 1 18 
5 0 9 0 0 0 1 20 
4 0 6 0 0 0 1 20 
4 0 5 0 0 0 1 23 
3 0 6 0 0 0 1 23 
5 0 6 0 0 0 1 23 
3 0 5 0 0 0 1 25 
8 0 2 0 0 0 1 25 
0 0 0 0 0 0 1 38 
0 0 0 0 0 0 3 27 28 30 
8 0 0 1 0 0 2 33 29 
10 0 0 6 0 0 3 36 35 31 
7 0 0 3 0 0 2 35 31 
6 0 0 5 0 0 2 33 32 
2 0 0 4 0 0 1 32 
10 0 0 7 0 0 1 34 
9 0 0 3 0 0 1 34 
5 0 0 8 0 0 1 37 
9 0 0 5 0 0 1 37 
6 0 0 8 0 0 1 37 
0 0 0 0 0 0 1 38 
0 0 0 0 0 0 3 39 51 63 
0 0 0 0 0 0 4 40 43 46 49 
8 0 1 0 0 0 2 45 41 
7 0 3 0 0 0 1 42 
4 0 5 0 0 0 1 44 
1 0 4 0 0 0 1 44 
5 0 9 0 0 0 1 47 
8 0 6 0 0 0 1 48 
2 0 7 0 0 0 1 48 
3 0 6 0 0 0 1 50 
3 0 2 0 0 0 1 50 
9 0 7 0 0 0 1 50 
0 0 0 0 0 0 1 75 
0 0 0 0 0 0 2 52 54 
5 0 0 1 0 0 2 55 53 
8 0 0 5 0 0 3 61 57 56 
8 0 0 3 0 0 2 61 55 
7 0 0 7 0 0 2 60 57 
9 0 0 5 0 0 2 60 59 
6 0 0 5 0 0 1 58 
10 0 0 7 0 0 1 59 
3 0 0 4 0 0 1 62 
5 0 0 6 0 0 1 62 
10 0 0 7 0 0 1 62 
0 0 0 0 0 0 1 75 
0 0 0 0 0 0 2 64 66 
1 0 1 0 0 0 2 68 65 
1 0 7 0 0 0 3 73 69 67 
7 0 2 0 0 0 3 73 72 71 
5 0 3 0 0 0 2 72 70 
2 0 8 0 0 0 2 72 70 
6 0 4 0 0 0 2 72 71 
8 0 3 0 0 0 1 71 
8 0 8 0 0 0 1 74 
6 0 6 0 0 0 1 74 
8 0 8 0 0 0 1 74 
0 0 0 0 0 0 1 75 
0 0 0 0 0 0 3 76 108 120 
0 0 0 0 0 0 3 77 78 106 
3 0 1 1 0 1 2 105 79 
8 0 5 6 0 7 2 105 79 
6 0 3 3 0 4 2 82 80 
3 0 2 9 0 4 2 88 81 
9 0 5 2 0 6 3 104 98 83 
5 0 8 7 0 7 3 92 88 85 
10 0 3 5 0 7 1 84 
3 0 4 5 0 6 2 92 85 
1 0 2 10 0 4 2 97 86 
7 0 4 4 0 6 2 94 87 
9 0 3 3 0 3 1 89 
10 0 9 6 0 4 1 89 
7 0 5 5 0 6 2 103 90 
1 0 4 6 0 2 1 91 
2 0 7 5 0 5 3 102 96 93 
2 0 7 4 0 7 3 103 102 93 
5 0 4 5 0 2 3 101 100 95 
4 0 5 6 0 6 1 95 
3 0 3 8 0 6 1 99 
9 0 5 5 0 4 1 100 
4 0 5 4 0 3 1 103 
9 0 4 4 0 5 1 99 
6 0 6 6 0 5 1 107 
4 0 6 3 0 8 1 107 
1 0 5 5 0 8 1 107 
5 0 9 4 0 4 1 107 
1 0 5 3 0 5 1 107 
8 0 6 5 0 6 1 107 
10 0 9 5 0 6 1 107 
6 0 6 6 0 3 1 107 
0 0 0 0 0 0 1 244 
0 0 0 0 0 0 3 109 112 115 
9 0 0 0 0 1 2 113 110 
6 0 0 0 0 3 2 118 111 
10 0 0 0 0 8 2 117 114 
2 0 0 0 0 9 2 117 114 
7 0 0 0 0 4 2 117 116 
5 0 0 0 0 6 1 116 
2 0 0 0 0 3 1 118 
3 0 0 0 0 4 1 119 
8 0 0 0 0 4 1 119 
2 0 0 0 0 8 1 119 
0 0 0 0 0 0 3 152 174 196 
0 0 0 0 0 0 3 121 122 150 
3 0 2 0 1 1 2 149 123 
2 0 2 0 6 9 3 149 148 124 
9 0 6 0 10 4 2 135 124 
5 0 5 0 3 5 1 125 
10 0 4 0 4 2 3 147 146 126 
4 0 7 0 5 5 1 127 
10 0 5 0 6 7 3 145 144 128 
1 0 6 0 3 7 2 143 129 
5 0 8 0 5 3 1 130 
1 0 5 0 5 1 1 131 
3 0 4 0 3 6 2 142 132 
2 0 5 0 5 9 1 133 
5 0 4 0 6 5 3 141 137 134 
9 0 4 0 4 8 3 140 138 136 
6 0 2 0 10 7 2 148 142 
2 0 3 0 2 7 1 139 
5 0 6 0 5 6 1 138 
10 0 7 0 2 7 1 151 
7 0 4 0 8 3 1 151 
9 0 10 0 3 4 1 151 
3 0 8 0 6 8 1 151 
9 0 4 0 2 4 1 151 
9 0 4 0 3 5 1 151 
4 0 3 0 2 5 1 151 
10 0 2 0 10 3 1 151 
3 0 4 0 5 2 1 151 
6 0 8 0 6 3 1 151 
4 0 6 0 6 5 1 151 
10 0 4 0 7 4 1 151 
2 0 8 0 7 5 1 151 
0 0 0 0 0 0 1 244 
0 0 0 0 0 0 1 153 
4 0 1 0 1 0 1 154 
9 0 4 0 2 0 2 156 155 
9 0 5 0 7 0 1 157 
3 0 7 0 7 0 1 157 
10 0 7 0 3 0 1 158 
3 0 8 0 3 0 2 160 159 
7 0 7 0 5 0 1 161 
1 0 5 0 5 0 1 161 
2 0 2 0 4 0 5 166 165 164 163 162 
10 0 2 0 4 0 5 171 170 169 168 167 
5 0 6 0 7 0 5 171 170 169 168 167 
4 0 8 0 4 0 5 171 170 169 168 167 
9 0 3 0 6 0 5 171 170 169 168 167 
7 0 3 0 4 0 5 171 170 169 168 167 
7 0 8 0 8 0 1 172 
10 0 6 0 9 0 1 172 
6 0 5 0 4 0 1 172 
9 0 7 0 7 0 1 172 
3 0 3 0 2 0 1 172 
10 0 3 0 8 0 1 173 
0 0 0 0 0 0 1 244 
0 0 0 0 0 0 8 175 188 189 190 191 192 193 194 
1 0 1 0 0 1 1 176 
6 0 5 0 0 2 4 187 186 185 177 
7 0 5 0 0 8 1 178 
8 0 8 0 0 8 1 179 
7 0 5 0 0 1 1 180 
1 0 3 0 0 3 1 181 
9 0 3 0 0 5 1 182 
2 0 8 0 0 3 1 183 
6 0 5 0 0 7 1 184 
5 0 2 0 0 4 1 195 
7 0 5 0 0 5 1 195 
5 0 7 0 0 6 1 195 
7 0 8 0 0 5 1 195 
7 0 8 0 0 8 1 195 
6 0 6 0 0 6 1 195 
4 0 5 0 0 6 1 195 
6 0 5 0 0 2 1 195 
6 0 4 0 0 7 1 195 
4 0 4 0 0 8 1 195 
4 0 3 0 0 5 1 195 
0 0 0 0 0 0 1 244 
0 0 0 0 0 0 1 197 
10 0 0 0 0 1 2 201 198 
3 0 0 0 0 5 2 200 199 
8 0 0 0 0 8 4 206 205 203 202 
10 0 0 0 0 3 4 206 205 203 202 
7 0 0 0 0 3 2 203 202 
8 0 0 0 0 7 1 204 
5 0 0 0 0 7 1 204 
6 0 0 0 0 5 1 207 
5 0 0 0 0 5 1 207 
10 0 0 0 0 6 1 207 
0 0 0 0 0 0 3 208 220 232 
0 0 0 0 0 0 4 209 211 212 218 
4 0 1 0 0 0 1 210 
9 0 3 0 0 0 3 217 216 213 
10 0 6 0 0 0 2 217 214 
4 0 4 0 0 0 2 216 215 
4 0 6 0 0 0 1 214 
10 0 7 0 0 0 1 215 
3 0 8 0 0 0 1 219 
8 0 2 0 0 0 1 219 
9 0 7 0 0 0 1 219 
3 0 6 0 0 0 1 219 
0 0 0 0 0 0 1 244 
0 0 0 0 0 0 4 221 225 226 230 
4 0 0 0 1 0 2 229 222 
3 0 0 0 8 0 2 228 223 
10 0 0 0 6 0 1 224 
1 0 0 0 5 0 1 227 
10 0 0 0 8 0 1 227 
1 0 0 0 4 0 1 227 
8 0 0 0 3 0 1 231 
4 0 0 0 2 0 1 231 
2 0 0 0 7 0 1 231 
4 0 0 0 6 0 1 231 
0 0 0 0 0 0 1 244 
0 0 0 0 0 0 3 233 235 237 
10 1 0 0 0 0 2 236 234 
10 5 0 0 0 0 2 241 238 
8 2 0 0 0 0 2 242 239 
3 6 0 0 0 0 1 238 
8 8 0 0 0 0 1 238 
1 3 0 0 0 0 1 239 
3 9 0 0 0 0 1 240 
7 3 0 0 0 0 1 243 
2 5 0 0 0 0 1 243 
10 8 0 0 0 0 1 243 
0 0 0 0 0 0 1 244 
0 0 0 0 0 0 0 
